language Essence 1.3
letting nnodes be 10
letting nrings be 6
letting capacity be 5
letting demand be {{1, 8},
{2, 5},
{2, 6},
{2, 7},
{3, 4},
{3, 7},
{3, 8},
{3, 9},
{5, 6},
{5, 10},
{6, 7},
{6, 9},
{7, 9},
{7, 10},
{8, 10}}
